language ESSENCE' 1.0

letting n_classes be 23
letting n_options be 5
letting n_cars be 200
letting quantity_Function1D be [17, 2, 18, 8, 1, 5, 5, 3, 11, 4, 9, 4, 40, 1, 2, 6, 3, 29, 18, 1, 9, 2, 2; int(1..23)]
letting usage_RelationAsSet_Explicit_1 be
        [1, 2, 2, 2, 3, 3, 4, 4, 5, 5, 6, 6, 7, 7, 8, 8, 8, 9, 9, 10, 10, 10, 11, 11, 12, 12, 12, 13, 14, 14, 14, 15,
         15, 16, 16, 17, 17, 18, 19, 20, 20, 20, 21, 22, 22, 22, 22, 23, 23, 23;
             int(1..50)]
letting usage_RelationAsSet_Explicit_2 be
        [5, 2, 3, 5, 2, 4, 1, 3, 4, 5, 2, 3, 3, 5, 1, 2, 3, 1, 2, 2, 3, 4, 3, 4, 1, 2, 5, 2, 1, 4, 5, 1, 5, 1, 4, 2, 5,
         1, 4, 1, 3, 4, 3, 1, 2, 3, 5, 1, 2, 4;
             int(1..50)]
letting blksize_Function1D be [2, 3, 3, 5, 5; int(1..5)]
letting maxcars_Function1D be [1, 2, 1, 2, 1; int(1..5)]
letting fin1 be 23
letting fin2 be 40
letting fin3 be 5
letting fin4 be 2
letting fin5 be 5
letting fin6 be 5
letting fin7 be 50
